data/instances/vrp_files/train_31.vrp
NAME : 31
COMMENT : Generated instance No. 31
TYPE : CVRP
DIMENSION : 21
EDGE_WEIGHT_TYPE : EUC_2D
CAPACITY : 30
NODE_COORD_SECTION
 1 520 616
 2 47 38
 3 746 659
 4 802 105
 5 35 508
 6 387 461
 7 991 970
 8 942 783
 9 354 412
 10 549 830
 11 68 424
 12 82 514
 13 898 782
 14 227 975
 15 667 10
 16 255 260
 17 69 959
 18 478 895
 19 322 125
 20 474 113
 21 486 920
DEMAND_SECTION
1 0
2 2
3 10
4 1
5 8
6 2
7 7
8 9
9 9
10 8
11 10
12 9
13 2
14 6
15 4
16 4
17 5
18 3
19 1
20 8
21 5
DEPOT_SECTION
 1
 -1
EOF